rcpsp/heur_output_bi_constraints/Log=2/heurj30.txt
encoding rcpsp/j30.sm/j3017_3.sm nv: 25050 nc: 68054 enctime: 0.47
encoding rcpsp/j30.sm/j3017_3.sm nv: 7950 nc: 20744 enctime: 0.08
c File: j3017_3.smnaivebi2.wcnf
c optimal
c final solution cost: 46
c CPU time: 0.129027
s OPTIMUM FOUND

c File: j3017_3.smbi2.wcnf
c optimal
c final solution cost: 46
c CPU time: 0.023743
s OPTIMUM FOUND


rcpsp/heur_output_bi_constraints/Log=2/heurj30.txt
encoding rcpsp/j30.sm/j3017_4.sm nv: 20160 nc: 53179 enctime: 0.36
encoding rcpsp/j30.sm/j3017_4.sm nv: 8260 nc: 21219 enctime: 0.09
c File: j3017_4.smnaivebi2.wcnf
c optimal
c final solution cost: 43
c CPU time: 0.236278
s OPTIMUM FOUND

c File: j3017_4.smbi2.wcnf
c optimal
c final solution cost: 43
c CPU time: 0.047464
s OPTIMUM FOUND


rcpsp/heur_output_bi_constraints/Log=2/heurj30.txt
encoding rcpsp/j30.sm/j3017_5.sm nv: 20960 nc: 58813 enctime: 0.41
encoding rcpsp/j30.sm/j3017_5.sm nv: 9956 nc: 27313 enctime: 0.12
c File: j3017_5.smnaivebi2.wcnf
c optimal
c final solution cost: 47
c CPU time: 0.479759
s OPTIMUM FOUND

c File: j3017_5.smbi2.wcnf
c optimal
c final solution cost: 47
c CPU time: 0.080618
s OPTIMUM FOUND


rcpsp/heur_output_bi_constraints/Log=2/heurj30.txt
encoding rcpsp/j30.sm/j3017_6.sm nv: 22378 nc: 63253 enctime: 0.44
encoding rcpsp/j30.sm/j3017_6.sm nv: 9648 nc: 26583 enctime: 0.12
c File: j3017_6.smnaivebi2.wcnf
c optimal
c final solution cost: 51
c CPU time: 0.116588
s OPTIMUM FOUND

c File: j3017_6.smbi2.wcnf
c optimal
c final solution cost: 51
c CPU time: 0.029539
s OPTIMUM FOUND


rcpsp/heur_output_bi_constraints/Log=2/heurj30.txt
encoding rcpsp/j30.sm/j3017_7.sm nv: 22428 nc: 66474 enctime: 0.47
encoding rcpsp/j30.sm/j3017_7.sm nv: 8442 nc: 24183 enctime: 0.10
c File: j3017_7.smnaivebi2.wcnf
c optimal
c final solution cost: 50
c CPU time: 0.152490
s OPTIMUM FOUND

c File: j3017_7.smbi2.wcnf
c optimal
c final solution cost: 50
c CPU time: 0.029401
s OPTIMUM FOUND


rcpsp/heur_output_bi_constraints/Log=2/heurj30.txt
encoding rcpsp/j30.sm/j3017_8.sm nv: 23635 nc: 64535 enctime: 0.44
encoding rcpsp/j30.sm/j3017_8.sm nv: 8555 nc: 22623 enctime: 0.09
c File: j3017_8.smnaivebi2.wcnf
c optimal
c final solution cost: 54
c CPU time: 0.500328
s OPTIMUM FOUND

c File: j3017_8.smbi2.wcnf
c optimal
c final solution cost: 54
c CPU time: 0.031768
s OPTIMUM FOUND


rcpsp/heur_output_bi_constraints/Log=2/heurj30.txt
encoding rcpsp/j30.sm/j3017_9.sm nv: 17290 nc: 44454 enctime: 0.30
encoding rcpsp/j30.sm/j3017_9.sm nv: 5985 nc: 14874 enctime: 0.06
c File: j3017_9.smnaivebi2.wcnf
c optimal
c final solution cost: 38
c CPU time: 0.114974
s OPTIMUM FOUND

c File: j3017_9.smbi2.wcnf
c optimal
c final solution cost: 38
c CPU time: 0.024035
s OPTIMUM FOUND


rcpsp/heur_output_bi_constraints/Log=2/heurj30.txt
encoding rcpsp/j30.sm/j301_7.sm nv: 19519 nc: 51701 enctime: 0.34
encoding rcpsp/j30.sm/j301_7.sm nv: 10349 nc: 26991 enctime: 0.13
c File: j301_7.smnaivebi2.wcnf
c optimal
c final solution cost: 39
c CPU time: 0.095523
s OPTIMUM FOUND

c File: j301_7.smbi2.wcnf
c optimal
c final solution cost: 39
c CPU time: 0.039588
s OPTIMUM FOUND


rcpsp/heur_output_bi_constraints/Log=2/heurj30.txt
encoding rcpsp/j30.sm/j3018_10.sm nv: 21646 nc: 58989 enctime: 0.41
encoding rcpsp/j30.sm/j3018_10.sm nv: 6165 nc: 16049 enctime: 0.06
c File: j3018_10.smnaivebi2.wcnf
c optimal
c final solution cost: 41
c CPU time: 0.115978
s OPTIMUM FOUND

c File: j3018_10.smbi2.wcnf
c optimal
c final solution cost: 41
c CPU time: 0.018003
s OPTIMUM FOUND


rcpsp/heur_output_bi_constraints/Log=2/heurj30.txt
encoding rcpsp/j30.sm/j3018_1.sm nv: 20664 nc: 58312 enctime: 0.41
encoding rcpsp/j30.sm/j3018_1.sm nv: 8946 nc: 24553 enctime: 0.11
c File: j3018_1.smnaivebi2.wcnf
c optimal
c final solution cost: 42
c CPU time: 0.241570
s OPTIMUM FOUND

c File: j3018_1.smbi2.wcnf
c optimal
c final solution cost: 42
c CPU time: 0.045209
s OPTIMUM FOUND


rcpsp/heur_output_bi_constraints/Log=2/heurj30.txt
encoding rcpsp/j30.sm/j3018_2.sm nv: 23572 nc: 64597 enctime: 0.45
encoding rcpsp/j30.sm/j3018_2.sm nv: 10082 nc: 26977 enctime: 0.12
c File: j3018_2.smnaivebi2.wcnf
c optimal
c final solution cost: 49
c CPU time: 0.116221
s OPTIMUM FOUND

c File: j3018_2.smbi2.wcnf
c optimal
c final solution cost: 49
c CPU time: 0.029129
s OPTIMUM FOUND


rcpsp/heur_output_bi_constraints/Log=2/heurj30.txt
encoding rcpsp/j30.sm/j3018_3.sm nv: 21504 nc: 60952 enctime: 0.44
encoding rcpsp/j30.sm/j3018_3.sm nv: 7680 nc: 20992 enctime: 0.09
c File: j3018_3.smnaivebi2.wcnf
c optimal
c final solution cost: 41
c CPU time: 0.128875
s OPTIMUM FOUND

c File: j3018_3.smbi2.wcnf
c optimal
c final solution cost: 41
c CPU time: 0.024574
s OPTIMUM FOUND


rcpsp/heur_output_bi_constraints/Log=2/heurj30.txt
encoding rcpsp/j30.sm/j3018_4.sm nv: 25088 nc: 77260 enctime: 0.57
encoding rcpsp/j30.sm/j3018_4.sm nv: 10368 nc: 31030 enctime: 0.14
c File: j3018_4.smnaivebi2.wcnf
c optimal
c final solution cost: 67
c CPU time: 0.149827
s OPTIMUM FOUND

c File: j3018_4.smbi2.wcnf
c optimal
c final solution cost: 67
c CPU time: 0.033953
s OPTIMUM FOUND


rcpsp/heur_output_bi_constraints/Log=2/heurj30.txt
encoding rcpsp/j30.sm/j3018_5.sm nv: 24966 nc: 68895 enctime: 0.48
encoding rcpsp/j30.sm/j3018_5.sm nv: 11242 nc: 30355 enctime: 0.14
c File: j3018_5.smnaivebi2.wcnf
c optimal
c final solution cost: 50
c CPU time: 0.144427
s OPTIMUM FOUND

c File: j3018_5.smbi2.wcnf
c optimal
c final solution cost: 50
c CPU time: 0.039758
s OPTIMUM FOUND


rcpsp/heur_output_bi_constraints/Log=2/heurj30.txt
encoding rcpsp/j30.sm/j3018_6.sm nv: 28055 nc: 77177 enctime: 0.54
encoding rcpsp/j30.sm/j3018_6.sm nv: 9455 nc: 25097 enctime: 0.11
c File: j3018_6.smnaivebi2.wcnf
c optimal
c final solution cost: 57
c CPU time: 0.174083
s OPTIMUM FOUND

c File: j3018_6.smbi2.wcnf
c optimal
c final solution cost: 57
c CPU time: 0.028478
s OPTIMUM FOUND


rcpsp/heur_output_bi_constraints/Log=2/heurj30.txt
encoding rcpsp/j30.sm/j3018_7.sm nv: 19720 nc: 51976 enctime: 0.35
encoding rcpsp/j30.sm/j3018_7.sm nv: 6120 nc: 15476 enctime: 0.06
c File: j3018_7.smnaivebi2.wcnf
c optimal
c final solution cost: 42
c CPU time: 0.091371
s OPTIMUM FOUND

c File: j3018_7.smbi2.wcnf
c optimal
c final solution cost: 42
c CPU time: 0.013931
s OPTIMUM FOUND


rcpsp/heur_output_bi_constraints/Log=2/heurj30.txt
encoding rcpsp/j30.sm/j3018_8.sm nv: 22848 nc: 63456 enctime: 0.45
encoding rcpsp/j30.sm/j3018_8.sm nv: 8840 nc: 23801 enctime: 0.10
c File: j3018_8.smnaivebi2.wcnf
c optimal
c final solution cost: 48
c CPU time: 0.124289
s OPTIMUM FOUND

c File: j3018_8.smbi2.wcnf
c optimal
c final solution cost: 48
c CPU time: 0.027364
s OPTIMUM FOUND


rcpsp/heur_output_bi_constraints/Log=2/heurj30.txt
encoding rcpsp/j30.sm/j3018_9.sm nv: 21352 nc: 58562 enctime: 0.41
encoding rcpsp/j30.sm/j3018_9.sm nv: 8024 nc: 21322 enctime: 0.09
c File: j3018_9.smnaivebi2.wcnf
c optimal
c final solution cost: 41
c CPU time: 0.150878
s OPTIMUM FOUND

c File: j3018_9.smbi2.wcnf
c optimal
c final solution cost: 41
c CPU time: 0.036713
s OPTIMUM FOUND


rcpsp/heur_output_bi_constraints/Log=2/heurj30.txt
encoding rcpsp/j30.sm/j301_8.sm nv: 21330 nc: 56915 enctime: 0.37
encoding rcpsp/j30.sm/j301_8.sm nv: 10665 nc: 27922 enctime: 0.13
c File: j301_8.smnaivebi2.wcnf
c optimal
c final solution cost: 39
c CPU time: 0.150198
s OPTIMUM FOUND

c File: j301_8.smbi2.wcnf
c optimal
c final solution cost: 39
c CPU time: 0.064007
s OPTIMUM FOUND


rcpsp/heur_output_bi_constraints/Log=2/heurj30.txt
encoding rcpsp/j30.sm/j3019_10.sm nv: 22110 nc: 61335 enctime: 0.43
encoding rcpsp/j30.sm/j3019_10.sm nv: 5896 nc: 15476 enctime: 0.06
c File: j3019_10.smnaivebi2.wcnf
c optimal
c final solution cost: 38
c CPU time: 0.125437
s OPTIMUM FOUND

c File: j3019_10.smbi2.wcnf
c optimal
c final solution cost: 38
c CPU time: 0.016202
s OPTIMUM FOUND


rcpsp/heur_output_bi_constraints/Log=2/heurj30.txt
encoding rcpsp/j30.sm/j3019_1.sm nv: 19448 nc: 50563 enctime: 0.35
encoding rcpsp/j30.sm/j3019_1.sm nv: 6256 nc: 15643 enctime: 0.06
c File: j3019_1.smnaivebi2.wcnf
c optimal
c final solution cost: 34
c CPU time: 0.091168
s OPTIMUM FOUND

c File: j3019_1.smbi2.wcnf
c optimal
c final solution cost: 34
c CPU time: 0.014869
s OPTIMUM FOUND


rcpsp/heur_output_bi_constraints/Log=2/heurj30.txt
encoding rcpsp/j30.sm/j3019_2.sm nv: 32736 nc: 87571 enctime: 0.60
encoding rcpsp/j30.sm/j3019_2.sm nv: 12320 nc: 32123 enctime: 0.17
c File: j3019_2.smnaivebi2.wcnf
c optimal
c final solution cost: 47
c CPU time: 0.157692
s OPTIMUM FOUND

c File: j3019_2.smbi2.wcnf
c optimal
c final solution cost: 47
c CPU time: 0.033921
s OPTIMUM FOUND


rcpsp/heur_output_bi_constraints/Log=2/heurj30.txt
encoding rcpsp/j30.sm/j3019_3.sm nv: 30173 nc: 91994 enctime: 0.67
encoding rcpsp/j30.sm/j3019_3.sm nv: 11583 nc: 34274 enctime: 0.18
c File: j3019_3.smnaivebi2.wcnf
c optimal
c final solution cost: 60
c CPU time: 0.301684
s OPTIMUM FOUND

c File: j3019_3.smbi2.wcnf
c optimal
c final solution cost: 60
c CPU time: 0.083759
s OPTIMUM FOUND


rcpsp/heur_output_bi_constraints/Log=2/heurj30.txt
encoding rcpsp/j30.sm/j3019_4.sm nv: 22052 nc: 56601 enctime: 0.38
encoding rcpsp/j30.sm/j3019_4.sm nv: 6364 nc: 15579 enctime: 0.06
c File: j3019_4.smnaivebi2.wcnf
c optimal
c final solution cost: 38
c CPU time: 0.125712
s OPTIMUM FOUND

c File: j3019_4.smbi2.wcnf
c optimal
c final solution cost: 38
c CPU time: 0.020617
s OPTIMUM FOUND


rcpsp/heur_output_bi_constraints/Log=2/heurj30.txt
encoding rcpsp/j30.sm/j3019_5.sm nv: 23452 nc: 63662 enctime: 0.44
encoding rcpsp/j30.sm/j3019_5.sm nv: 7436 nc: 19422 enctime: 0.08
c File: j3019_5.smnaivebi2.wcnf
c optimal
c final solution cost: 45
c CPU time: 0.139397
s OPTIMUM FOUND

c File: j3019_5.smbi2.wcnf
c optimal
c final solution cost: 45
c CPU time: 0.025318
s OPTIMUM FOUND


rcpsp/heur_output_bi_constraints/Log=2/heurj30.txt
encoding rcpsp/j30.sm/j3019_6.sm nv: 18495 nc: 47461 enctime: 0.32
encoding rcpsp/j30.sm/j3019_6.sm nv: 6750 nc: 16750 enctime: 0.07
c File: j3019_6.smnaivebi2.wcnf
c optimal
c final solution cost: 45
c CPU time: 0.115804
s OPTIMUM FOUND

c File: j3019_6.smbi2.wcnf
c optimal
c final solution cost: 45
c CPU time: 0.022598
s OPTIMUM FOUND


rcpsp/heur_output_bi_constraints/Log=2/heurj30.txt
encoding rcpsp/j30.sm/j3019_7.sm nv: 25551 nc: 68388 enctime: 0.47
encoding rcpsp/j30.sm/j3019_7.sm nv: 9027 nc: 23352 enctime: 0.10
c File: j3019_7.smnaivebi2.wcnf
c optimal
c final solution cost: 51
c CPU time: 0.126304
s OPTIMUM FOUND

c File: j3019_7.smbi2.wcnf
c optimal
c final solution cost: 51
c CPU time: 0.024068
s OPTIMUM FOUND


rcpsp/heur_output_bi_constraints/Log=2/heurj30.txt
encoding rcpsp/j30.sm/j3019_8.sm nv: 28028 nc: 77918 enctime: 0.54
encoding rcpsp/j30.sm/j3019_8.sm nv: 8008 nc: 21238 enctime: 0.08
c File: j3019_8.smnaivebi2.wcnf
c optimal
c final solution cost: 47
c CPU time: 0.180172
s OPTIMUM FOUND

c File: j3019_8.smbi2.wcnf
c optimal
c final solution cost: 47
c CPU time: 0.026136
s OPTIMUM FOUND


rcpsp/heur_output_bi_constraints/Log=2/heurj30.txt
encoding rcpsp/j30.sm/j3019_9.sm nv: 20925 nc: 56234 enctime: 0.39
encoding rcpsp/j30.sm/j3019_9.sm nv: 5265 nc: 13314 enctime: 0.05
c File: j3019_9.smnaivebi2.wcnf
c optimal
c final solution cost: 37
c CPU time: 0.112397
s OPTIMUM FOUND

c File: j3019_9.smbi2.wcnf
c optimal
c final solution cost: 37
c CPU time: 0.014664
s OPTIMUM FOUND


rcpsp/heur_output_bi_constraints/Log=2/heurj30.txt
encoding rcpsp/j30.sm/j301_9.sm nv: 22057 nc: 60196 enctime: 0.39
encoding rcpsp/j30.sm/j301_9.sm nv: 7672 nc: 20296 enctime: 0.08
c File: j301_9.smnaivebi2.wcnf
c optimal
c final solution cost: 36
c CPU time: 0.128394
s OPTIMUM FOUND

c File: j301_9.smbi2.wcnf
c optimal
c final solution cost: 36
c CPU time: 0.030408
s OPTIMUM FOUND


rcpsp/heur_output_bi_constraints/Log=2/heurj30.txt
encoding rcpsp/j30.sm/j3020_10.sm nv: 25254 nc: 60805 enctime: 0.39
encoding rcpsp/j30.sm/j3020_10.sm nv: 6222 nc: 14317 enctime: 0.06
c File: j3020_10.smnaivebi2.wcnf
c optimal
c final solution cost: 33
c CPU time: 0.103683
s OPTIMUM FOUND

c File: j3020_10.smbi2.wcnf
c optimal
c final solution cost: 33
c CPU time: 0.013657
s OPTIMUM FOUND


rcpsp/heur_output_bi_constraints/Log=2/heurj30.txt
encoding rcpsp/j30.sm/j3020_1.sm nv: 33672 nc: 89230 enctime: 0.61
encoding rcpsp/j30.sm/j3020_1.sm nv: 10856 nc: 27850 enctime: 0.15
c File: j3020_1.smnaivebi2.wcnf
c optimal
c final solution cost: 48
c CPU time: 0.150928
s OPTIMUM FOUND

c File: j3020_1.smbi2.wcnf
c optimal
c final solution cost: 48
c CPU time: 0.028196
s OPTIMUM FOUND


rcpsp/heur_output_bi_constraints/Log=2/heurj30.txt
encoding rcpsp/j30.sm/j3020_2.sm nv: 23838 nc: 67983 enctime: 0.48
encoding rcpsp/j30.sm/j3020_2.sm nv: 9179 nc: 25397 enctime: 0.11
c File: j3020_2.smnaivebi2.wcnf
c optimal
c final solution cost: 54
c CPU time: 0.137391
s OPTIMUM FOUND

c File: j3020_2.smbi2.wcnf
c optimal
c final solution cost: 54
c CPU time: 0.029424
s OPTIMUM FOUND


rcpsp/heur_output_bi_constraints/Log=2/heurj30.txt
encoding rcpsp/j30.sm/j3020_3.sm nv: 32398 nc: 87973 enctime: 0.61
encoding rcpsp/j30.sm/j3020_3.sm nv: 8350 nc: 21589 enctime: 0.12
c File: j3020_3.smnaivebi2.wcnf
c optimal
c final solution cost: 49
c CPU time: 0.163434
s OPTIMUM FOUND

c File: j3020_3.smbi2.wcnf
c optimal
c final solution cost: 49
c CPU time: 0.018195
s OPTIMUM FOUND


rcpsp/heur_output_bi_constraints/Log=2/heurj30.txt
encoding rcpsp/j30.sm/j3020_4.sm nv: 23380 nc: 63534 enctime: 0.45
encoding rcpsp/j30.sm/j3020_4.sm nv: 6580 nc: 16974 enctime: 0.07
c File: j3020_4.smnaivebi2.wcnf
c optimal
c final solution cost: 43
c CPU time: 0.118101
s OPTIMUM FOUND

c File: j3020_4.smbi2.wcnf
c optimal
c final solution cost: 43
c CPU time: 0.015460
s OPTIMUM FOUND


rcpsp/heur_output_bi_constraints/Log=2/heurj30.txt
encoding rcpsp/j30.sm/j3020_5.sm nv: 20224 nc: 57194 enctime: 0.40
encoding rcpsp/j30.sm/j3020_5.sm nv: 9600 nc: 26567 enctime: 0.12
c File: j3020_5.smnaivebi2.wcnf
c optimal
c final solution cost: 61
c CPU time: 0.104802
s OPTIMUM FOUND

c File: j3020_5.smbi2.wcnf
c optimal
c final solution cost: 61
c CPU time: 0.029936
s OPTIMUM FOUND


rcpsp/heur_output_bi_constraints/Log=2/heurj30.txt
encoding rcpsp/j30.sm/j3020_6.sm nv: 24047 nc: 67368 enctime: 0.47
encoding rcpsp/j30.sm/j3020_6.sm nv: 8618 nc: 23301 enctime: 0.10
c File: j3020_6.smnaivebi2.wcnf
c optimal
c final solution cost: 51
c CPU time: 0.125653
s OPTIMUM FOUND

c File: j3020_6.smbi2.wcnf
c optimal
c final solution cost: 51
c CPU time: 0.023700
s OPTIMUM FOUND


rcpsp/heur_output_bi_constraints/Log=2/heurj30.txt
encoding rcpsp/j30.sm/j3020_7.sm nv: 22491 nc: 58149 enctime: 0.40
encoding rcpsp/j30.sm/j3020_7.sm nv: 6321 nc: 15579 enctime: 0.06
c File: j3020_7.smnaivebi2.wcnf
c optimal
c final solution cost: 42
c CPU time: 0.105340
s OPTIMUM FOUND

c File: j3020_7.smbi2.wcnf
c optimal
c final solution cost: 42
c CPU time: 0.013288
s OPTIMUM FOUND


rcpsp/heur_output_bi_constraints/Log=2/heurj30.txt
encoding rcpsp/j30.sm/j3020_8.sm nv: 22737 nc: 61077 enctime: 0.42
encoding rcpsp/j30.sm/j3020_8.sm nv: 10439 nc: 27451 enctime: 0.12
c File: j3020_8.smnaivebi2.wcnf
c optimal
c final solution cost: 46
c CPU time: 0.110088
s OPTIMUM FOUND

c File: j3020_8.smbi2.wcnf
c optimal
c final solution cost: 46
c CPU time: 0.031719
s OPTIMUM FOUND


rcpsp/heur_output_bi_constraints/Log=2/heurj30.txt
encoding rcpsp/j30.sm/j3020_9.sm nv: 24964 nc: 63345 enctime: 0.43
encoding rcpsp/j30.sm/j3020_9.sm nv: 7584 nc: 18465 enctime: 0.07
c File: j3020_9.smnaivebi2.wcnf
c optimal
c final solution cost: 40
c CPU time: 0.112528
s OPTIMUM FOUND

c File: j3020_9.smbi2.wcnf
c optimal
c final solution cost: 40
c CPU time: 0.017214
s OPTIMUM FOUND


